num_features = 42;
num_usage_limits = 0;
num_plans = 3;
num_addons = 0;

features = ["dedicatedSuccessManager", "allInOneDashboard", "movileApp", "createInvoices", "createBills", "createRecurringInvoices", "connectYourBanks", "collectPaymentOnline", "inviteYourAccountant", "multiCurrency", "addCustomFields", "standardReports", "smartReports", "automationWorkflows", "standardInventoryTracking", "pickPackShip", "multiWarehouse", "productVariants", "batchTracking", "serialTracking", "billOfMaterials", "landedCost", "wipTracking", "finishedGoodsTracking", "multiLevelBom", "productionSchedulling", "jobOrders", "qualityCheck", "yieldCalculation", "demandPlanning", "demandForecasting", "substituteBOM", "contacts", "manageAllSalesConversation", "trackSalesActivities", "customFields", "dragAndDropCustomForms", "standardIntegrations", "salesAutomationWorkflows", "marketingAutomationWorkflows", "chat", "sendEmailBlasts", "noCodeLandingPages", "scheduleMeetings", "setupEmailHelpdesk", "hiringManagement", "runPayroll", "submitExpenses", "approveExpenses", "applyLeaves", "approveLeaves", "paySlipDesigner", "attendanceManagement", "shiftManagement", "geoFencing", "phoneSupport", "emailSupport", "chatSupport", "accessToHelpCenter", "deskeraAcademy", "reportsCustomization", "integrations", "customDashboards"];
usage_limits = [];
plans = ["ALL_IN_ONE", "ESSENTIAL", "PROFESSIONAL"];
addons = [];

plans_prices = [200.0,300.0,100000000.0];
addons_prices = [];

plans_features = array2d(PLANS, FEATURES, [
    % ALL_IN_ONE
    1,1,1,1,1,1,1,1,1,0,0,1,1,1,1,1,1,1,1,1,1,1,0,0,0,0,0,0,0,0,0,0,0,1,1,1,1,1,1,1,1,1,1,1,1,1,1,1,1,1,1,1,1,1,0,0,0,
    % ESSENTIAL
    0,1,1,1,1,1,1,1,1,0,0,1,1,1,1,1,1,1,1,1,1,1,1,1,1,1,1,1,1,1,1,1,0,1,1,1,1,1,1,1,1,1,1,1,1,1,1,1,1,1,1,1,1,1,0,0,0,
    % PROFESSIONAL
    0,1,1,1,1,1,1,1,1,0,0,1,1,1,1,1,1,1,1,1,1,1,1,1,1,1,1,1,1,1,1,1,1,1,1,1,1,1,1,1,1,1,1,1,1,1,1,1,1,1,1,1,1,1,1,1,1,
]);
plans_usage_limits = array2d(PLANS, USAGE_LIMITS, [
    % ALL_IN_ONE
    ,
    % ESSENTIAL
    ,
    % PROFESSIONAL
    ,
]);

linked_features = array2d(USAGE_LIMITS, FEATURES, [
    % 
    ,
    % 
    ,
]);

addons_features = array2d(ADDONS, FEATURES, [
    % 
    ,
    % 
    ,
]);
addons_usage_limits = array2d(ADDONS, USAGE_LIMITS, [
    % 
    ,
    % 
    ,
]);
addons_usage_limits_extensions = array2d(ADDONS, USAGE_LIMITS, [
    % 
    ,
    % 
    ,
]);
addons_available_for = array2d(ADDONS, PLANS, [
    % 
    ,
    % 
    ,
]);

addons_depends_on = array2d(ADDONS, ADDONS, [
    % 
    ,
    % 
    ,
]);